solution status: gap limit reached
objective value:                           28502.8713
y#5                                                 1 	(obj:5700)
y#26                                                1 	(obj:5700)
y#30                                                1 	(obj:5700)
y#49                                                1 	(obj:5700)
y#53                                                1 	(obj:5700)
x#1#5                                               1 	(obj:0.05593)
x#2#53                                              1 	(obj:0.08976)
x#3#5                                               1 	(obj:0.08721)
x#4#5                                               1 	(obj:0.05576)
x#5#49                                              1 	(obj:0.05508)
x#6#30                                              1 	(obj:0.06018)
x#7#30                                              1 	(obj:0.02006)
x#8#5                                               1 	(obj:0.06256)
x#9#49                                              1 	(obj:0.05593)
x#10#30                                             1 	(obj:0.03196)
x#11#26                                             1 	(obj:0.08942)
x#12#53                                             1 	(obj:0.04913)
x#13#53                                             1 	(obj:0.03791)
x#14#5                                              1 	(obj:0.085)
x#15#30                                             1 	(obj:0.02635)
x#16#53                                             1 	(obj:0.04726)
x#17#30                                             1 	(obj:0.01615)
x#18#30                                             1 	(obj:0.02227)
x#19#49                                             1 	(obj:0.03621)
x#20#53                                             1 	(obj:0.07225)
x#21#5                                              1 	(obj:0.02159)
x#22#26                                             1 	(obj:0.0833)
x#23#26                                             1 	(obj:0.09401)
x#24#26                                             1 	(obj:0.05287)
x#25#26                                             1 	(obj:0.07548)
x#26#26                                             1 	(obj:0.03485)
x#27#53                                             1 	(obj:0.07497)
x#28#30                                             1 	(obj:0.02448)
x#29#53                                             1 	(obj:0.05117)
x#30#49                                             1 	(obj:0.03876)
x#31#5                                              1 	(obj:0.05831)
x#32#53                                             1 	(obj:0.06375)
x#33#5                                              1 	(obj:0.08109)
x#34#49                                             1 	(obj:0.05049)
x#35#5                                              1 	(obj:0.02822)
x#36#5                                              1 	(obj:0.01445)
x#37#5                                              1 	(obj:0.04403)
x#38#49                                             1 	(obj:0.05049)
x#39#26                                             1 	(obj:0.08976)
x#40#30                                             1 	(obj:0.02414)
x#41#49                                             1 	(obj:0.03009)
x#42#30                                             1 	(obj:0.085)
x#43#53                                             1 	(obj:0.02618)
x#44#49                                             1 	(obj:0.03451)
x#45#30                                             1 	(obj:0.02074)
x#46#49                                             1 	(obj:0.04777)
x#47#49                                             1 	(obj:0.06307)
x#48#26                                             1 	(obj:0.03808)
x#49#53                                             1 	(obj:0.04012)
x#50#30                                             1 	(obj:0.05899)
x#51#26                                             1 	(obj:0.12801)
x#52#53                                             1 	(obj:0.02958)
x#53#5                                              1 	(obj:0.0255)
x#54#49                                             1 	(obj:0.04505)
x#55#26                                             1 	(obj:0.05389)
x#56#26                                             1 	(obj:0.03213)
